true true true
presolving:
presolving (0 rounds: 0 fast, 0 medium, 0 exhaustive):
 0 deleted vars, 0 deleted constraints, 0 added constraints, 0 tightened bounds, 0 added holes, 0 changed sides, 0 changed coefficients
 0 implications, 0 cliques
presolved problem has 86 variables (86 bin, 0 int, 0 impl, 0 cont) and 76 constraints
     76 constraints of type <linear>
transformed objective value is always integral (scale: 1)
Presolving Time: 0.00

 time | node  | left  |LP iter|LP it/n|mem/heur|mdpt |vars |cons |rows |cuts |sepa|confs|strbr|  dualbound   | primalbound  |  gap   | compl. 
p 0.0s|     1 |     0 |     0 |     - |shiftand|   0 |  86 |  76 |  76 |   0 |  0 |   0 |   0 |      --      | 1.000000e+01 |    Inf | unknown
 time | node  | left  |LP iter|LP it/n|mem/heur|mdpt |vars |cons |rows |cuts |sepa|confs|strbr|  dualbound   | primalbound  |  gap   | compl. 
  0.1s|     1 |     0 |    41 |     - |  5053k |   0 |1502 |  76 |  76 |   0 |  0 |   0 |   0 | 1.000000e+00 | 1.000000e+01 | 900.00%| unknown
 time | node  | left  |LP iter|LP it/n|mem/heur|mdpt |vars |cons |rows |cuts |sepa|confs|strbr|  dualbound   | primalbound  |  gap   | compl. 
 1295s|     1 |     0 |  2444 |     - |    23M |   0 |7185 |  76 |  76 |   0 |  0 |   0 |   0 | 9.000000e+00 | 1.000000e+01 |  11.11%| unknown
 time | node  | left  |LP iter|LP it/n|mem/heur|mdpt |vars |cons |rows |cuts |sepa|confs|strbr|  dualbound   | primalbound  |  gap   | compl. 
 1297s|     1 |     2 |  6112 |     - |    25M |   0 |7185 |  76 |  76 |   0 |  1 |   0 |   0 | 9.000000e+00 | 1.000000e+01 |  11.11%| unknown
 time | node  | left  |LP iter|LP it/n|mem/heur|mdpt |vars |cons |rows |cuts |sepa|confs|strbr|  dualbound   | primalbound  |  gap   | compl. 
 1659s|     2 |     3 |  6161 |  49.0 |    25M |   1 |7227 |  76 |  76 |   0 |  1 |   0 |   0 | 9.000000e+00 | 1.000000e+01 |  11.11%| unknown
 time | node  | left  |LP iter|LP it/n|mem/heur|mdpt |vars |cons |rows |cuts |sepa|confs|strbr|  dualbound   | primalbound  |  gap   | compl. 
 2018s|     3 |     4 |  6397 | 142.5 |    27M |   1 |7310 |  76 |  76 |   0 |  1 |   0 |   0 | 9.000000e+00 | 1.000000e+01 |  11.11%| unknown
 time | node  | left  |LP iter|LP it/n|mem/heur|mdpt |vars |cons |rows |cuts |sepa|confs|strbr|  dualbound   | primalbound  |  gap   | compl. 
 2484s|     4 |     5 |  8755 | 881.0 |    32M |   2 |8638 |  76 |  76 |   0 |  1 |   0 |   0 | 9.000000e+00 | 1.000000e+01 |  11.11%| unknown
 time | node  | left  |LP iter|LP it/n|mem/heur|mdpt |vars |cons |rows |cuts |sepa|confs|strbr|  dualbound   | primalbound  |  gap   | compl. 
 2676s|     5 |     6 |  8756 | 661.0 |    32M |   2 |8638 |  76 |  76 |   0 |  1 |   0 |   0 | 9.000000e+00 | 1.000000e+01 |  11.11%| unknown
 time | node  | left  |LP iter|LP it/n|mem/heur|mdpt |vars |cons |rows |cuts |sepa|confs|strbr|  dualbound   | primalbound  |  gap   | compl. 
 3228s|     6 |     7 |  8943 | 566.2 |    32M |   3 |8644 |  76 |  76 |   0 |  1 |   0 |   0 | 9.000000e+00 | 1.000000e+01 |  11.11%| unknown
 time | node  | left  |LP iter|LP it/n|mem/heur|mdpt |vars |cons |rows |cuts |sepa|confs|strbr|  dualbound   | primalbound  |  gap   | compl. 
 3411s|     7 |     8 |  8944 | 472.0 |    32M |   4 |8644 |  76 |  76 |   0 |  1 |   0 |   0 | 9.000000e+00 | 1.000000e+01 |  11.11%| unknown
 time | node  | left  |LP iter|LP it/n|mem/heur|mdpt |vars |cons |rows |cuts |sepa|confs|strbr|  dualbound   | primalbound  |  gap   | compl. 
 3701s|     8 |     9 |  8973 | 408.7 |    32M |   5 |8647 |  76 |  76 |   0 |  1 |   0 |   0 | 9.000000e+00 | 1.000000e+01 |  11.11%| unknown
 time | node  | left  |LP iter|LP it/n|mem/heur|mdpt |vars |cons |rows |cuts |sepa|confs|strbr|  dualbound   | primalbound  |  gap   | compl. 
 4279s|     9 |    10 |  9395 | 410.4 |    33M |   6 |8981 |  76 |  76 |   0 |  1 |   0 |   0 | 9.000000e+00 | 1.000000e+01 |  11.11%| unknown
 time | node  | left  |LP iter|LP it/n|mem/heur|mdpt |vars |cons |rows |cuts |sepa|confs|strbr|  dualbound   | primalbound  |  gap   | compl. 
 4701s|    10 |    11 |  9422 | 367.8 |    33M |   7 |8983 |  76 |  76 |   0 |  1 |   0 |   0 | 9.000000e+00 | 1.000000e+01 |  11.11%| unknown
 time | node  | left  |LP iter|LP it/n|mem/heur|mdpt |vars |cons |rows |cuts |sepa|confs|strbr|  dualbound   | primalbound  |  gap   | compl. 
 4957s|    11 |    12 |  9477 | 336.5 |    33M |   8 |8987 |  76 |  76 |   0 |  1 |   0 |   0 | 9.000000e+00 | 1.000000e+01 |  11.11%| unknown
 time | node  | left  |LP iter|LP it/n|mem/heur|mdpt |vars |cons |rows |cuts |sepa|confs|strbr|  dualbound   | primalbound  |  gap   | compl. 
 5228s|    12 |    13 |  9919 | 346.1 |    36M |   8 |9024 |  76 |  76 |   0 |  1 |   0 |   0 | 9.000000e+00 | 1.000000e+01 |  11.11%| unknown
 time | node  | left  |LP iter|LP it/n|mem/heur|mdpt |vars |cons |rows |cuts |sepa|confs|strbr|  dualbound   | primalbound  |  gap   | compl. 
 5674s|    13 |    14 | 11058 | 412.2 |    37M |   8 |9576 |  76 |  76 |   0 |  1 |   0 |   0 | 9.000000e+00 | 1.000000e+01 |  11.11%| unknown
 time | node  | left  |LP iter|LP it/n|mem/heur|mdpt |vars |cons |rows |cuts |sepa|confs|strbr|  dualbound   | primalbound  |  gap   | compl. 
 5675s|    14 |    13 | 11346 | 402.6 |    37M |   9 |9576 |  76 |  76 |   0 |  0 |   0 |   0 | 9.000000e+00 | 1.000000e+01 |  11.11%| unknown
 time | node  | left  |LP iter|LP it/n|mem/heur|mdpt |vars |cons |rows |cuts |sepa|confs|strbr|  dualbound   | primalbound  |  gap   | compl. 
 5923s|    15 |    14 | 12910 | 485.6 |    38M |   9 |9585 |  76 |  76 |   0 |  1 |   0 |   0 | 9.000000e+00 | 1.000000e+01 |  11.11%| unknown
 time | node  | left  |LP iter|LP it/n|mem/heur|mdpt |vars |cons |rows |cuts |sepa|confs|strbr|  dualbound   | primalbound  |  gap   | compl. 
 5990s|    16 |    15 | 13010 | 459.9 |    38M |   9 |9585 |  76 |  76 |   0 |  1 |   0 |   0 | 9.000000e+00 | 1.000000e+01 |  11.11%| unknown
 time | node  | left  |LP iter|LP it/n|mem/heur|mdpt |vars |cons |rows |cuts |sepa|confs|strbr|  dualbound   | primalbound  |  gap   | compl. 
 6235s|    17 |    16 | 13559 | 465.4 |    39M |   9 |9726 |  76 |  76 |   0 |  1 |   0 |   0 | 9.000000e+00 | 1.000000e+01 |  11.11%| unknown
 time | node  | left  |LP iter|LP it/n|mem/heur|mdpt |vars |cons |rows |cuts |sepa|confs|strbr|  dualbound   | primalbound  |  gap   | compl. 
 6236s|    18 |    15 | 13658 | 443.9 |    40M |   9 |9780 |  76 |  76 |   0 |  0 |   0 |   0 | 9.000000e+00 | 1.000000e+01 |  11.11%| unknown
 time | node  | left  |LP iter|LP it/n|mem/heur|mdpt |vars |cons |rows |cuts |sepa|confs|strbr|  dualbound   | primalbound  |  gap   | compl. 
 6591s|    19 |    16 | 14951 | 491.1 |    40M |   9 |9783 |  76 |  76 |   0 |  1 |   0 |   0 | 9.000000e+00 | 1.000000e+01 |  11.11%|   2.36%
 time | node  | left  |LP iter|LP it/n|mem/heur|mdpt |vars |cons |rows |cuts |sepa|confs|strbr|  dualbound   | primalbound  |  gap   | compl. 
 6912s|    20 |    17 | 15685 | 503.8 |    41M |  10 |  10k|  76 |  76 |   0 |  1 |   0 |   0 | 9.000000e+00 | 1.000000e+01 |  11.11%|   2.36%
 time | node  | left  |LP iter|LP it/n|mem/heur|mdpt |vars |cons |rows |cuts |sepa|confs|strbr|  dualbound   | primalbound  |  gap   | compl. 
 7046s|    21 |    18 | 16124 | 500.6 |    41M |  11 |  10k|  76 |  76 |   0 |  1 |   0 |   0 | 9.000000e+00 | 1.000000e+01 |  11.11%|   2.36%
 time | node  | left  |LP iter|LP it/n|mem/heur|mdpt |vars |cons |rows |cuts |sepa|confs|strbr|  dualbound   | primalbound  |  gap   | compl. 
 7174s|    22 |    19 | 16147 | 477.9 |    42M |  11 |  10k|  76 |  76 |   0 |  1 |   0 |   0 | 9.000000e+00 | 1.000000e+01 |  11.11%|   2.36%

SCIP Status        : solving was interrupted [time limit reached]
Solving Time (sec) : 7227.44
Solving Nodes      : 23
Primal Bound       : +1.00000000000000e+01 (3 solutions)
Dual Bound         : +9.00000000000000e+00
Gap                : 11.11 %
Running with parallel: True bidir: True symbreak: True
Number of Nodes:  76
49.33527117655635% holds
starting cheapest insertion heuristic
Heuristic without TSP improvement:  11
Heuristic without TSP improvement time:  0.1
Heuristic Sol:  10
Heuristic total time:  0.4
[[16, 30, 11, 39, 17, 4, 23], [18, 32, 3, 22, 48, 66, 37, 34], [58, 24, 14, 72, 61, 31, 2, 46, 20, 56, 35], [26, 68, 40, 74, 9, 60], [52, 36, 65, 38, 64, 8, 7, 21, 13], [55, 50, 59, 28, 54, 42, 10], [62, 6, 5, 0, 41, 53], [70, 49, 1, 29, 43, 25, 44, 45, 27, 51, 12, 15], [71, 69, 63, 19, 57, 47], [75, 67, 73, 33]]
Instance path:  /home/htc/mghannam/SCRATCH/lccp-rust/data/t84_pr76.npcc
Timelimit:  7200
Heuristic without TSP improvement:  11
Heuristic without TSP improvement time:  0.1
Heuristic Sol:  10
Heuristic total time:  1.2
at 1 zero_duals: 66
at1, LP obj: 10.0 n_added_paths: 1416
at 1 zero_duals: 50
at1, LP obj: 10.0 n_added_paths: 442
at 1 zero_duals: 30
at1, LP obj: 10.0 n_added_paths: 912
at 1 zero_duals: 18
at1, LP obj: 9.999999999999998 n_added_paths: 953
at 1 zero_duals: 20
at1, LP obj: 9.307420494699645 n_added_paths: 1015
at 1 zero_duals: 12
at1, LP obj: 9.01521054636456 n_added_paths: 716
at 1 zero_duals: 6
at1, LP obj: 8.825112358904539 n_added_paths: 642
at 1 zero_duals: 4
at1, LP obj: 8.670521665675846 n_added_paths: 364
at 1 zero_duals: 4
at1, LP obj: 8.502072163592945 n_added_paths: 255
at 1 zero_duals: 3
at1, LP obj: 8.42342580827333 n_added_paths: 164
at 1 zero_duals: 3
at1, LP obj: 8.388946864944776 n_added_paths: 43
at 1 zero_duals: 5
at1, LP obj: 8.345287373163853 n_added_paths: 26
at 1 zero_duals: 1
at1, LP obj: 8.329554655870446 n_added_paths: 23
at1, LP obj: 8.326987903882488 n_added_paths: 5
at 1 zero_duals: 5
Switching to elementary pricing
at1, LP obj: 8.315517876889052 n_added_paths: 82
updated lowerbound from 1.0 to 8
at 1 zero_duals: 3
at1, LP obj: 8.290964141534078 n_added_paths: 1
at 1 zero_duals: 3
at1, LP obj: 8.289136846791697 n_added_paths: 2
at 1 zero_duals: 3
Switching to elementary pricing
at1, LP obj: 8.289136846791697 n_added_paths: 23
updated lowerbound from 8.0 to 9
at 1 zero_duals: 2
Switching to elementary pricing
at1, LP obj: 8.275804005065476 n_added_paths: 7
at 1 zero_duals: 5
Switching to elementary pricing
at1, LP obj: 8.248099628012291 n_added_paths: 7
at 1 zero_duals: 4
Switching to elementary pricing
at1, LP obj: 8.247496372896533 n_added_paths: 1
at 1 zero_duals: 2
Switching to elementary pricing
at1, LP obj: 8.247453347905111 n_added_paths: 0
at 2 zero_duals: 2
Switching to elementary pricing
at2, LP obj: 8.252746783792745 n_added_paths: 41
at 2 zero_duals: 2
at2, LP obj: 8.250031716060128 n_added_paths: 1
at 2 zero_duals: 2
Switching to elementary pricing
at2, LP obj: 8.250031716060128 n_added_paths: 0
at 3 zero_duals: 4
at3, LP obj: 8.291063257178438 n_added_paths: 40
at 3 zero_duals: 3
Switching to elementary pricing
at3, LP obj: 8.278293974839992 n_added_paths: 39
at 3 zero_duals: 3
Switching to elementary pricing
at3, LP obj: 8.263588488863945 n_added_paths: 4
at 3 zero_duals: 3
Switching to elementary pricing
at3, LP obj: 8.262720328078244 n_added_paths: 0
at 5 zero_duals: 75
at5, LP obj: 1e+20 n_added_paths: 46
at 5 zero_duals: 4
at5, LP obj: 9.301129601403128 n_added_paths: 719
at 5 zero_duals: 16
at5, LP obj: 8.836344086021505 n_added_paths: 209
at 5 zero_duals: 6
at5, LP obj: 8.67966338873234 n_added_paths: 79
at 5 zero_duals: 5
at5, LP obj: 8.60077210265505 n_added_paths: 50
at 5 zero_duals: 2
Switching to elementary pricing
at5, LP obj: 8.577714789294443 n_added_paths: 139
at 5 zero_duals: 6
Switching to elementary pricing
at5, LP obj: 8.431026871930696 n_added_paths: 74
at 5 zero_duals: 5
Switching to elementary pricing
at5, LP obj: 8.42044341009309 n_added_paths: 10
at 5 zero_duals: 3
Switching to elementary pricing
at5, LP obj: 8.408846188423189 n_added_paths: 2
at 5 zero_duals: 3
Switching to elementary pricing
at5, LP obj: 8.408772096155037 n_added_paths: 0
at 4 zero_duals: 2
Switching to elementary pricing
at4, LP obj: 8.250031716060128 n_added_paths: 0
at 10 zero_duals: 3
Switching to elementary pricing
at10, LP obj: 8.267894562699901 n_added_paths: 5
at 10 zero_duals: 3
Switching to elementary pricing
at10, LP obj: 8.266894996687256 n_added_paths: 1
at 10 zero_duals: 3
Switching to elementary pricing
at10, LP obj: 8.266893819198343 n_added_paths: 0
at 12 zero_duals: 3
Switching to elementary pricing
at12, LP obj: 8.266894996687256 n_added_paths: 0
at 14 zero_duals: 3
Switching to elementary pricing
at14, LP obj: 8.27053803211652 n_added_paths: 3
at 14 zero_duals: 3
Switching to elementary pricing
at14, LP obj: 8.27012151784631 n_added_paths: 0
at 16 zero_duals: 3
at16, LP obj: 8.36810644648562 n_added_paths: 197
Switching to elementary pricing
at16, LP obj: 8.351587101758694 n_added_paths: 110
at 16 zero_duals: 3
Switching to elementary pricing
at16, LP obj: 8.324907934382324 n_added_paths: 26
at 16 zero_duals: 4
Switching to elementary pricing
at16, LP obj: 8.322418710781518 n_added_paths: 1
at 16 zero_duals: 4
Switching to elementary pricing
at16, LP obj: 8.322409400567894 n_added_paths: 0
at 18 zero_duals: 5
Switching to elementary pricing
at18, LP obj: 8.323500231496794 n_added_paths: 1
at 18 zero_duals: 5
Switching to elementary pricing
at18, LP obj: 8.323383084577113 n_added_paths: 1
at 18 zero_duals: 5
Switching to elementary pricing
at18, LP obj: 8.323383084577113 n_added_paths: 0
at 20 zero_duals: 3
Switching to elementary pricing
at20, LP obj: 8.327402274448394 n_added_paths: 4
at 20 zero_duals: 3
Switching to elementary pricing
at20, LP obj: 8.32718476517452 n_added_paths: 0
at 21 zero_duals: 2
Switching to elementary pricing
at21, LP obj: 8.352566433410756 n_added_paths: 32
at 21 zero_duals: 1
at21, LP obj: 8.342315558515848 n_added_paths: 3
Switching to elementary pricing
at21, LP obj: 8.342315558515848 n_added_paths: 2
at 21 zero_duals: 1
Switching to elementary pricing
at21, LP obj: 8.342177328107834 n_added_paths: 0
at 19 zero_duals: 75
Switching to elementary pricing
at19, LP obj: 1e+20 n_added_paths: 28
updated lowerbound from 9.0 to 100000000000000000000
at 19 zero_duals: 6
at19, LP obj: 9.169327887114742 n_added_paths: 409
at 19 zero_duals: 2
at19, LP obj: 8.721207156822185 n_added_paths: 62
at 19 zero_duals: 3
Switching to elementary pricing
at19, LP obj: 8.694246597377992 n_added_paths: 48
at 19 zero_duals: 2
Switching to elementary pricing
at19, LP obj: 8.675799772566352 n_added_paths: 4
at 19 zero_duals: 2
Switching to elementary pricing
at19, LP obj: 8.675713741280177 n_added_paths: 1
at 19 zero_duals: 2
Switching to elementary pricing
at19, LP obj: 8.675712660583647 n_added_paths: 0
at 25 zero_duals: 75
Switching to elementary pricing
at25, LP obj: 1e+20 n_added_paths: 0
updated lowerbound from 9.0 to 100000000000000000000
Switching to elementary pricing
at24, LP obj: 8.349661383048785 n_added_paths: 3
at 24 zero_duals: 1
at24, LP obj: 8.349487576559019 n_added_paths: 1
at 24 zero_duals: 1
Switching to elementary pricing
at24, LP obj: 8.34948757655902 n_added_paths: 5
Switching to elementary pricing
at24, LP obj: 8.34946053252811 n_added_paths: 0
at 17 zero_duals: 3
Switching to elementary pricing
at17, LP obj: 8.270815232046019 n_added_paths: 0
at 15 zero_duals: 4
Switching to elementary pricing
at15, LP obj: 8.336075652232232 n_added_paths: 129
at 15 zero_duals: 1
Switching to elementary pricing
at15, LP obj: 8.28673846694569 n_added_paths: 12
at 15 zero_duals: 1
Switching to elementary pricing
at15, LP obj: 8.286188807867763 n_added_paths: 0
at 13 zero_duals: 75
at13, LP obj: 1e+20 n_added_paths: 54
at 13 zero_duals: 75
Switching to elementary pricing
at13, LP obj: 1e+20 n_added_paths: 0
updated lowerbound from 9.0 to 100000000000000000000
at 11 zero_duals: 2
Switching to elementary pricing
at11, LP obj: 8.266524662926987 n_added_paths: 2
at 11 zero_duals: 2
Switching to elementary pricing
at11, LP obj: 8.26551094890511 n_added_paths: 1
at 11 zero_duals: 2
Switching to elementary pricing
at11, LP obj: 8.26550572519084 n_added_paths: 0
at 28 zero_duals: 3
at28, LP obj: 8.562265204768504 n_added_paths: 402
at 28 zero_duals: 1
Switching to elementary pricing
at28, LP obj: 8.50673940851018 n_added_paths: 112
at 28 zero_duals: 2
at28, LP obj: 8.462870558458063 n_added_paths: 1
at 28 zero_duals: 1
Switching to elementary pricing
at28, LP obj: 8.462633300534533 n_added_paths: 4
at 28 zero_duals: 1
Switching to elementary pricing
at28, LP obj: 8.460707740025377 n_added_paths: 2
at 28 zero_duals: 1
Switching to elementary pricing
at28, LP obj: 8.460412453396069 n_added_paths: 0
at 36 zero_duals: 2
Switching to elementary pricing
at36, LP obj: 8.473483254796365 n_added_paths: 10
at 36 zero_duals: 2
Switching to elementary pricing
at36, LP obj: 8.473087795783506 n_added_paths: 0
at 29 zero_duals: 1
Switching to elementary pricing
at29, LP obj: 8.350115463714912 n_added_paths: 6
at 29 zero_duals: 1
Switching to elementary pricing
at29, LP obj: 8.349612577203818 n_added_paths: 0
at 40 zero_duals: 74
at40, LP obj: 1e+20 n_added_paths: 70
at 40 zero_duals: 2
at40, LP obj: 9.226382407014567 n_added_paths: 463
at40, LP obj: 8.50925570320301 n_added_paths: 32
Switching to elementary pricing
at40, LP obj: 8.482510060260918 n_added_paths: 70
Best solution found:
t_[16, 4, 30, 11, 39, 17, 23, 16] 1.0 1.0
checking cycle [16, 4, 30, 11, 39, 17, 23, 16]
[16, 4, 30, 11, 39, 17, 23, 16] 20954 19523
t_[18, 32, 3, 56, 22, 48, 66, 37, 34, 18] 1.0 1.0
checking cycle [18, 32, 3, 56, 22, 48, 66, 37, 34, 18]
[18, 32, 3, 56, 22, 48, 66, 37, 34, 18] 15747 15167
t_[24, 14, 61, 72, 52, 58, 35, 46, 20, 2, 31, 24] 1.0 1.0
checking cycle [24, 14, 61, 72, 52, 58, 35, 46, 20, 2, 31, 24]
[24, 14, 61, 72, 52, 58, 35, 46, 20, 2, 31, 24] 14168 13297
t_[26, 68, 40, 74, 9, 60, 26] 1.0 1.0
checking cycle [26, 68, 40, 74, 9, 60, 26]
[26, 68, 40, 74, 9, 60, 26] 13914 12087
t_[21, 7, 8, 64, 38, 65, 36, 13, 21] 1.0 1.0
checking cycle [21, 7, 8, 64, 38, 65, 36, 13, 21]
[21, 7, 8, 64, 38, 65, 36, 13, 21] 15815 13067
t_[55, 50, 59, 28, 54, 42, 10, 55] 1.0 1.0
checking cycle [55, 50, 59, 28, 54, 42, 10, 55]
[55, 50, 59, 28, 54, 42, 10, 55] 16531 15833
t_[62, 6, 5, 0, 41, 53, 62] 1.0 1.0
checking cycle [62, 6, 5, 0, 41, 53, 62]
[62, 6, 5, 0, 41, 53, 62] 16240 14802
t_[49, 1, 25, 29, 43, 51, 12, 27, 45, 44, 15, 70, 49] 1.0 1.0
checking cycle [49, 1, 25, 29, 43, 51, 12, 27, 45, 44, 15, 70, 49]
[49, 1, 25, 29, 43, 51, 12, 27, 45, 44, 15, 70, 49] 14814 13707
t_[71, 69, 63, 19, 57, 47, 71] 1.0 1.0
checking cycle [71, 69, 63, 19, 57, 47, 71]
[71, 69, 63, 19, 57, 47, 71] 14716 11676
t_[75, 67, 73, 33, 75] 1.0 1.0
checking cycle [75, 67, 73, 33, 75]
[75, 67, 73, 33, 75] 13754 6179
